;symbolic execution tree
(push)
(assert (le x4 java.lang.String))
(check-sat)
(push)
(assert (le x0 java.lang.String))
(check-sat)
(pop)
(push)
(assert (not (le x0 java.lang.String)))
(check-sat)
(push)
(assert (le x3 java.lang.String))
(check-sat)
(push)
(assert (le x3 java.lang.String))
(check-sat)
(pop)
(push)
(assert (not (le x3 java.lang.String)))
(check-sat)
(pop)
(pop)
(push)
(assert (not (le x3 java.lang.String)))
(check-sat)
(pop)
(pop)
(push)
(assert (le x2 java.lang.StringBuilder))
(check-sat)
(pop)
(push)
(assert (not (le x2 java.lang.StringBuilder)))
(check-sat)
(push)
(assert (le x5 java.util.zip.ZipEntry))
(check-sat)
(push)
(assert (le x4 java.lang.String))
(check-sat)
(pop)
(push)
(assert (not (le x4 java.lang.String)))
(check-sat)
(pop)
(pop)
(push)
(assert (not (le x5 java.util.zip.ZipEntry)))
(check-sat)
(pop)
(pop)
(push)
(assert (le x6 java.lang.String))
(check-sat)
(pop)
(push)
(assert (not (le x6 java.lang.String)))
(check-sat)
(push)
(assert (le x5 soot.coffi.CONSTANT_Utf8_info))
(check-sat)
(pop)
(push)
(assert (not (le x5 soot.coffi.CONSTANT_Utf8_info)))
(check-sat)
(push)
(assert (le x4 java.lang.String))
(check-sat)
(pop)
(push)
(assert (not (le x4 java.lang.String)))
(check-sat)
(pop)
(pop)
(push)
(assert (le x3 java.lang.String))
(check-sat)
(pop)
(push)
(assert (not (le x3 java.lang.String)))
(check-sat)
(push)
(assert (le x4 java.lang.String))
(check-sat)
(pop)
(push)
(assert (not (le x4 java.lang.String)))
(check-sat)
(pop)
(pop)
(pop)
(push)
(assert (le x5 java.util.zip.ZipEntry))
(check-sat)
(pop)
(push)
(assert (not (le x5 java.util.zip.ZipEntry)))
(check-sat)
(pop)
(push)
(assert (le x5 java.lang.String))
(check-sat)
(push)
(assert (le x2 java.lang.String))
(check-sat)
(pop)
(push)
(assert (not (le x2 java.lang.String)))
(check-sat)
(pop)
(pop)
(push)
(assert (not (le x5 java.lang.String)))
(check-sat)
(pop)
(push)
(assert (le x7 java.lang.String))
(check-sat)
(push)
(assert (le x1 java.lang.String))
(check-sat)
(pop)
(push)
(assert (not (le x1 java.lang.String)))
(check-sat)
(push)
(assert (le x6 java.util.zip.ZipEntry))
(check-sat)
(pop)
(push)
(assert (not (le x6 java.util.zip.ZipEntry)))
(check-sat)
(pop)
(push)
(assert (le x4 java.lang.String))
(check-sat)
(pop)
(push)
(assert (not (le x4 java.lang.String)))
(check-sat)
(pop)
(push)
(assert (le x2 java.lang.String))
(check-sat)
(push)
(assert (le x4 java.lang.String))
(check-sat)
(pop)
(push)
(assert (not (le x4 java.lang.String)))
(check-sat)
(pop)
(push)
(assert (le x5 java.io.File))
(check-sat)
(pop)
(push)
(assert (not (le x5 java.io.File)))
(check-sat)
(pop)
(pop)
(push)
(assert (not (le x2 java.lang.String)))
(check-sat)
(pop)
(push)
(assert (le x7 java.lang.String))
(check-sat)
(pop)
(push)
(assert (not (le x7 java.lang.String)))
(check-sat)
(pop)
(pop)
(pop)
(push)
(assert (not (le x7 java.lang.String)))
(check-sat)
(pop)
(pop)
(push)
(assert (not (le x4 java.lang.String)))
(check-sat)
(push)
(assert (le x3 java.io.File))
(check-sat)
(push)
(assert (le x5 java.lang.String))
(check-sat)
(push)
(assert (le x5 java.lang.String))
(check-sat)
(pop)
(push)
(assert (not (le x5 java.lang.String)))
(check-sat)
(pop)
(pop)
(push)
(assert (not (le x5 java.lang.String)))
(check-sat)
(pop)
(pop)
(push)
(assert (not (le x3 java.io.File)))
(check-sat)
(push)
(assert (le x2 java.io.DataInputStream))
(check-sat)
(pop)
(push)
(assert (not (le x2 java.io.DataInputStream)))
(check-sat)
(pop)
(push)
(assert (le x0 java.lang.StringBuilder))
(check-sat)
(push)
(assert (le x2 java.io.File))
(check-sat)
(pop)
(push)
(assert (not (le x2 java.io.File)))
(check-sat)
(pop)
(push)
(assert (le x4 java.lang.String))
(check-sat)
(pop)
(push)
(assert (not (le x4 java.lang.String)))
(check-sat)
(pop)
(push)
(assert (le x5 java.io.File))
(check-sat)
(pop)
(push)
(assert (not (le x5 java.io.File)))
(check-sat)
(pop)
(pop)
(push)
(assert (not (le x0 java.lang.StringBuilder)))
(check-sat)
(pop)
(push)
(assert (le x1 java.lang.StringBuilder))
(check-sat)
(pop)
(push)
(assert (not (le x1 java.lang.StringBuilder)))
(check-sat)
(pop)
(push)
(assert (le x7 soot.coffi.CONSTANT_Utf8_info))
(check-sat)
(push)
(assert (le x2 java.lang.StringBuilder))
(check-sat)
(pop)
(push)
(assert (not (le x2 java.lang.StringBuilder)))
(check-sat)
(pop)
(push)
(assert (le x7 soot.coffi.CONSTANT_Utf8_info))
(check-sat)
(pop)
(push)
(assert (not (le x7 soot.coffi.CONSTANT_Utf8_info)))
(check-sat)
(pop)
(pop)
(push)
(assert (not (le x7 soot.coffi.CONSTANT_Utf8_info)))
(check-sat)
(pop)
(push)
(assert (le x0 java.lang.String))
(check-sat)
(pop)
(push)
(assert (not (le x0 java.lang.String)))
(check-sat)
(pop)
(pop)
(push)
(assert (le x4 java.lang.String))
(check-sat)
(pop)
(push)
(assert (not (le x4 java.lang.String)))
(check-sat)
(push)
(assert (le x6 java.io.File))
(check-sat)
(push)
(assert (le x2 java.lang.String))
(check-sat)
(pop)
(push)
(assert (not (le x2 java.lang.String)))
(check-sat)
(pop)
(pop)
(push)
(assert (not (le x6 java.io.File)))
(check-sat)
(pop)
(pop)
(push)
(assert (le x6 java.util.zip.ZipEntry))
(check-sat)
(pop)
(push)
(assert (not (le x6 java.util.zip.ZipEntry)))
(check-sat)
(pop)
(push)
(assert (le x5 java.util.zip.ZipEntry))
(check-sat)
(pop)
(push)
(assert (not (le x5 java.util.zip.ZipEntry)))
(check-sat)
(push)
(assert (le x6 java.lang.StringBuilder))
(check-sat)
(push)
(assert (le x2 java.lang.String))
(check-sat)
(pop)
(push)
(assert (not (le x2 java.lang.String)))
(check-sat)
(pop)
(push)
(assert (le x2 java.io.File))
(check-sat)
(push)
(assert (le x2 java.io.File))
(check-sat)
(pop)
(push)
(assert (not (le x2 java.io.File)))
(check-sat)
(pop)
(pop)
(push)
(assert (not (le x2 java.io.File)))
(check-sat)
(pop)
(push)
(assert (le x6 java.lang.StringBuilder))
(check-sat)
(push)
(assert (le x2 java.io.File))
(check-sat)
(pop)
(push)
(assert (not (le x2 java.io.File)))
(check-sat)
(pop)
(pop)
(push)
(assert (not (le x6 java.lang.StringBuilder)))
(check-sat)
(pop)
(push)
(assert (le x3 java.io.File))
(check-sat)
(push)
(assert (le x6 java.lang.StringBuilder))
(check-sat)
(pop)
(push)
(assert (not (le x6 java.lang.StringBuilder)))
(check-sat)
(pop)
(push)
(assert (le x3 java.io.File))
(check-sat)
(pop)
(push)
(assert (not (le x3 java.io.File)))
(check-sat)
(pop)
(pop)
(push)
(assert (not (le x3 java.io.File)))
(check-sat)
(pop)
(pop)
(push)
(assert (not (le x6 java.lang.StringBuilder)))
(check-sat)
(push)
(assert (le x6 java.lang.StringBuilder))
(check-sat)
(pop)
(push)
(assert (not (le x6 java.lang.StringBuilder)))
(check-sat)
(pop)
(push)
(assert (le x2 java.util.zip.ZipEntry))
(check-sat)
(pop)
(push)
(assert (not (le x2 java.util.zip.ZipEntry)))
(check-sat)
(pop)
(push)
(assert (le x1 java.lang.String))
(check-sat)
(pop)
(push)
(assert (not (le x1 java.lang.String)))
(check-sat)
(push)
(assert (le x0 java.lang.String))
(check-sat)
(pop)
(push)
(assert (not (le x0 java.lang.String)))
(check-sat)
(pop)
(pop)
(push)
(assert (le x1 java.util.zip.ZipEntry))
(check-sat)
(pop)
(push)
(assert (not (le x1 java.util.zip.ZipEntry)))
(check-sat)
(push)
(assert (le x4 java.lang.String))
(check-sat)
(pop)
(push)
(assert (not (le x4 java.lang.String)))
(check-sat)
(pop)
(pop)
(push)
(assert (le x6 java.lang.StringBuilder))
(check-sat)
(pop)
(push)
(assert (not (le x6 java.lang.StringBuilder)))
(check-sat)
(pop)
(push)
(assert (le x0 java.util.zip.ZipEntry))
(check-sat)
(pop)
(push)
(assert (not (le x0 java.util.zip.ZipEntry)))
(check-sat)
(pop)
(push)
(assert (le x3 java.io.File))
(check-sat)
(pop)
(push)
(assert (not (le x3 java.io.File)))
(check-sat)
(pop)
(push)
(assert (le x2 java.lang.String))
(check-sat)
(pop)
(push)
(assert (not (le x2 java.lang.String)))
(check-sat)
(pop)
(pop)
(push)
(assert (le x6 java.util.zip.ZipEntry))
(check-sat)
(pop)
(push)
(assert (not (le x6 java.util.zip.ZipEntry)))
(check-sat)
(push)
(assert (le x6 java.util.zip.ZipEntry))
(check-sat)
(pop)
(push)
(assert (not (le x6 java.util.zip.ZipEntry)))
(check-sat)
(push)
(assert (le x7 java.io.File))
(check-sat)
(pop)
(push)
(assert (not (le x7 java.io.File)))
(check-sat)
(pop)
(push)
(assert (le x5 java.util.zip.ZipEntry))
(check-sat)
(pop)
(push)
(assert (not (le x5 java.util.zip.ZipEntry)))
(check-sat)
(pop)
(push)
(assert (le x3 java.util.zip.ZipEntry))
(check-sat)
(pop)
(push)
(assert (not (le x3 java.util.zip.ZipEntry)))
(check-sat)
(pop)
(pop)
(push)
(assert (le x1 java.lang.String))
(check-sat)
(pop)
(push)
(assert (not (le x1 java.lang.String)))
(check-sat)
(pop)
(push)
(assert (le x1 java.lang.String))
(check-sat)
(pop)
(push)
(assert (not (le x1 java.lang.String)))
(check-sat)
(pop)
(push)
(assert (le x2 java.io.File))
(check-sat)
(push)
(assert (le x4 java.lang.String))
(check-sat)
(pop)
(push)
(assert (not (le x4 java.lang.String)))
(check-sat)
(pop)
(pop)
(push)
(assert (not (le x2 java.io.File)))
(check-sat)
(pop)
(pop)
(push)
(assert (le x5 java.util.zip.ZipEntry))
(check-sat)
(pop)
(push)
(assert (not (le x5 java.util.zip.ZipEntry)))
(check-sat)
(push)
(assert (le x7 soot.coffi.method_info))
(check-sat)
(pop)
(push)
(assert (not (le x7 soot.coffi.method_info)))
(check-sat)
(pop)
(push)
(assert (le x4 java.lang.String))
(check-sat)
(pop)
(push)
(assert (not (le x4 java.lang.String)))
(check-sat)
(push)
(assert (le x5 java.util.zip.ZipEntry))
(check-sat)
(pop)
(push)
(assert (not (le x5 java.util.zip.ZipEntry)))
(check-sat)
(pop)
(pop)
(pop)
(push)
(assert (le x7 java.util.zip.ZipEntry))
(check-sat)
(push)
(assert (le x1 java.io.File))
(check-sat)
(pop)
(push)
(assert (not (le x1 java.io.File)))
(check-sat)
(push)
(assert (le x7 java.util.zip.ZipEntry))
(check-sat)
(pop)
(push)
(assert (not (le x7 java.util.zip.ZipEntry)))
(check-sat)
(pop)
(pop)
(pop)
(push)
(assert (not (le x7 java.util.zip.ZipEntry)))
(check-sat)
(push)
(assert (le x5 java.util.zip.ZipEntry))
(check-sat)
(pop)
(push)
(assert (not (le x5 java.util.zip.ZipEntry)))
(check-sat)
(pop)
(pop)
(pop)
(push)
(assert (le x6 java.lang.String))
(check-sat)
(push)
(assert (le x5 java.io.DataInputStream))
(check-sat)
(push)
(assert (le x4 java.lang.String))
(check-sat)
(pop)
(push)
(assert (not (le x4 java.lang.String)))
(check-sat)
(pop)
(pop)
(push)
(assert (not (le x5 java.io.DataInputStream)))
(check-sat)
(pop)
(pop)
(push)
(assert (not (le x6 java.lang.String)))
(check-sat)
(push)
(assert (le x7 java.lang.String))
(check-sat)
(pop)
(push)
(assert (not (le x7 java.lang.String)))
(check-sat)
(push)
(assert (le x5 java.lang.String))
(check-sat)
(pop)
(push)
(assert (not (le x5 java.lang.String)))
(check-sat)
(pop)
(pop)
(pop)
(push)
(assert (le x5 java.io.File))
(check-sat)
(push)
(assert (le x3 java.lang.String))
(check-sat)
(pop)
(push)
(assert (not (le x3 java.lang.String)))
(check-sat)
(push)
(assert (le x4 java.lang.String))
(check-sat)
(pop)
(push)
(assert (not (le x4 java.lang.String)))
(check-sat)
(push)
(assert (le x5 java.io.File))
(check-sat)
(pop)
(push)
(assert (not (le x5 java.io.File)))
(check-sat)
(pop)
(pop)
(push)
(assert (le x3 java.lang.String))
(check-sat)
(pop)
(push)
(assert (not (le x3 java.lang.String)))
(check-sat)
(pop)
(pop)
(pop)
(push)
(assert (not (le x5 java.io.File)))
(check-sat)
(push)
(assert (le x3 java.io.File))
(check-sat)
(pop)
(push)
(assert (not (le x3 java.io.File)))
(check-sat)
(push)
(assert (le x7 soot.SootField))
(check-sat)
(pop)
(push)
(assert (not (le x7 soot.SootField)))
(check-sat)
(pop)
(push)
(assert (le x3 java.io.File))
(check-sat)
(pop)
(push)
(assert (not (le x3 java.io.File)))
(check-sat)
(pop)
(pop)
(pop)
(push)
(assert (le x4 java.lang.String))
(check-sat)
(pop)
(push)
(assert (not (le x4 java.lang.String)))
(check-sat)
(pop)
(push)
(assert (le x0 java.io.DataInputStream))
(check-sat)
(push)
(assert (le x7 java.io.DataInputStream))
(check-sat)
(pop)
(push)
(assert (not (le x7 java.io.DataInputStream)))
(check-sat)
(pop)
(push)
(assert (le x4 java.lang.String))
(check-sat)
(pop)
(push)
(assert (not (le x4 java.lang.String)))
(check-sat)
(push)
(assert (le x3 java.lang.String))
(check-sat)
(pop)
(push)
(assert (not (le x3 java.lang.String)))
(check-sat)
(pop)
(push)
(assert (le x7 java.io.File))
(check-sat)
(pop)
(push)
(assert (not (le x7 java.io.File)))
(check-sat)
(pop)
(push)
(assert (le x4 java.lang.String))
(check-sat)
(pop)
(push)
(assert (not (le x4 java.lang.String)))
(check-sat)
(pop)
(pop)
(push)
(assert (le x4 java.lang.String))
(check-sat)
(pop)
(push)
(assert (not (le x4 java.lang.String)))
(check-sat)
(push)
(assert (le x0 java.io.DataInputStream))
(check-sat)
(push)
(assert (le x1 java.util.zip.ZipEntry))
(check-sat)
(pop)
(push)
(assert (not (le x1 java.util.zip.ZipEntry)))
(check-sat)
(pop)
(pop)
(push)
(assert (not (le x0 java.io.DataInputStream)))
(check-sat)
(pop)
(pop)
(pop)
(push)
(assert (not (le x0 java.io.DataInputStream)))
(check-sat)
(push)
(assert (le x4 java.lang.String))
(check-sat)
(pop)
(push)
(assert (not (le x4 java.lang.String)))
(check-sat)
(pop)
(pop)
(push)
(assert (le x1 java.io.File))
(check-sat)
(push)
(assert (le x3 soot.tagkit.Tag))
(check-sat)
(push)
(assert (le x4 java.lang.String))
(check-sat)
(pop)
(push)
(assert (not (le x4 java.lang.String)))
(check-sat)
(push)
(assert (le x1 java.io.File))
(check-sat)
(pop)
(push)
(assert (not (le x1 java.io.File)))
(check-sat)
(pop)
(push)
(assert (le x1 java.io.File))
(check-sat)
(pop)
(push)
(assert (not (le x1 java.io.File)))
(check-sat)
(pop)
(pop)
(pop)
(push)
(assert (not (le x3 soot.tagkit.Tag)))
(check-sat)
(pop)
(pop)
(push)
(assert (not (le x1 java.io.File)))
(check-sat)
(push)
(assert (le x2 java.lang.String))
(check-sat)
(push)
(assert (le x5 java.util.zip.ZipEntry))
(check-sat)
(pop)
(push)
(assert (not (le x5 java.util.zip.ZipEntry)))
(check-sat)
(pop)
(pop)
(push)
(assert (not (le x2 java.lang.String)))
(check-sat)
(pop)
(push)
(assert (le x5 java.io.File))
(check-sat)
(push)
(assert (le x2 java.util.zip.ZipEntry))
(check-sat)
(pop)
(push)
(assert (not (le x2 java.util.zip.ZipEntry)))
(check-sat)
(pop)
(pop)
(push)
(assert (not (le x5 java.io.File)))
(check-sat)
(push)
(assert (le x2 soot.coffi.CONSTANT_Methodref_info))
(check-sat)
(push)
(assert (le x6 java.lang.String))
(check-sat)
(pop)
(push)
(assert (not (le x6 java.lang.String)))
(check-sat)
(pop)
(pop)
(push)
(assert (not (le x2 soot.coffi.CONSTANT_Methodref_info)))
(check-sat)
(pop)
(pop)
(pop)
(push)
(assert (le x6 java.lang.String))
(check-sat)
(push)
(assert (le x2 soot.jimple.parser.node.TypedLinkedList))
(check-sat)
(pop)
(push)
(assert (le x2 soot.shimple.internal.SPatchingChain))
(check-sat)
(pop)
(push)
(assert (le x2 soot.util.HashChain))
(check-sat)
(pop)
(push)
(assert (le x2 soot.PatchingChain))
(check-sat)
(push)
(assert (not (le x2 soot.shimple.internal.SPatchingChain)))
(check-sat)
(pop)
(pop)
(push)
(assert (le x2 java.util.LinkedList))
(check-sat)
(push)
(assert (not (le x2 soot.jimple.parser.node.TypedLinkedList)))
(check-sat)
(pop)
(pop)
(pop)
(push)
(assert (not (le x6 java.lang.String)))
(check-sat)
(pop)
(push)
(assert (le x3 java.lang.String))
(check-sat)
(push)
(assert (le x0 java.lang.String))
(check-sat)
(pop)
(push)
(assert (not (le x0 java.lang.String)))
(check-sat)
(pop)
(push)
(assert (le x7 java.lang.StringBuffer))
(check-sat)
(pop)
(push)
(assert (not (le x7 java.lang.StringBuffer)))
(check-sat)
(pop)
(push)
(assert (le x5 java.lang.String))
(check-sat)
(pop)
(push)
(assert (not (le x5 java.lang.String)))
(check-sat)
(push)
(assert (le x5 java.lang.String))
(check-sat)
(pop)
(push)
(assert (not (le x5 java.lang.String)))
(check-sat)
(pop)
(push)
(assert (le x6 java.lang.String))
(check-sat)
(pop)
(push)
(assert (not (le x6 java.lang.String)))
(check-sat)
(pop)
(pop)
(pop)
(push)
(assert (not (le x3 java.lang.String)))
(check-sat)
(push)
(assert (le x3 java.lang.String))
(check-sat)
(pop)
(push)
(assert (not (le x3 java.lang.String)))
(check-sat)
(push)
(assert (le x0 java.lang.String))
(check-sat)
(push)
(assert (le x1 java.util.zip.ZipEntry))
(check-sat)
(pop)
(push)
(assert (not (le x1 java.util.zip.ZipEntry)))
(check-sat)
(pop)
(pop)
(push)
(assert (not (le x0 java.lang.String)))
(check-sat)
(pop)
(pop)
(push)
(assert (le x0 java.lang.String))
(check-sat)
(pop)
(push)
(assert (not (le x0 java.lang.String)))
(check-sat)
(push)
(assert (le x6 java.lang.String))
(check-sat)
(pop)
(push)
(assert (not (le x6 java.lang.String)))
(check-sat)
(pop)
(pop)
(push)
(assert (le x0 java.io.File))
(check-sat)
(push)
(assert (le x0 java.io.File))
(check-sat)
(push)
(assert (le x3 java.lang.String))
(check-sat)
(pop)
(push)
(assert (not (le x3 java.lang.String)))
(check-sat)
(pop)
(pop)
(push)
(assert (not (le x0 java.io.File)))
(check-sat)
(pop)
(push)
(assert (le x6 java.lang.String))
(check-sat)
(pop)
(push)
(assert (not (le x6 java.lang.String)))
(check-sat)
(pop)
(push)
(assert (le x7 java.lang.String))
(check-sat)
(pop)
(push)
(assert (not (le x7 java.lang.String)))
(check-sat)
(push)
(assert (le x7 java.lang.String))
(check-sat)
(pop)
(push)
(assert (not (le x7 java.lang.String)))
(check-sat)
(pop)
(push)
(assert (le x4 java.lang.String))
(check-sat)
(pop)
(push)
(assert (not (le x4 java.lang.String)))
(check-sat)
(pop)
(pop)
(pop)
(push)
(assert (not (le x0 java.io.File)))
(check-sat)
(pop)
(pop)
(pop)
